3) Creating base files to solve using NEW method/Modelling LOTSIZE variables with BINARY variables/Set/Filtered_Sudoku_Size1.lp
\ Model Sudoku Problem
\ LP format - for model browsing. Use MPS format to capture full model detail.
Minimize
 
Subject To
 R0: x_1_1 = 0
 R1: x_1_1 = 0
 R2: x_1_1 = 0
Bounds
Binaries
 x_1_1
End
