3) Creating base files to solve using NEW method/Modelling LOTSIZE variables with BINARY variables/Set/Filtered_Sudoku_Size1.mps
NAME Sudoku Problem
ROWS
 N  OBJ
 E  R0      
 E  R1      
 E  R2      
COLUMNS
    MARKER    'MARKER'                 'INTORG'
    x_1_1     R0        1
    x_1_1     R1        1
    x_1_1     R2        1
    MARKER    'MARKER'                 'INTEND'
RHS
BOUNDS
 BV BND1      x_1_1   
ENDATA
